20
587 233 220
88 54 39
94 54 36
87 77 43
100 80 72
83 40 36
91 54 22
109 58 54
94 55 30
34 32 31
83 80 57
108 40 26
72 37 32
93 93 28
71 56 33
104 78 26
94 85 44
82 75 65
109 81 28
79 73 45
104 91 76
thpack7_5